
 102   30
  10   10   10   10   10   10   10   10   10   10   10   10   10   10   10   10   10   10   10   10   10   10   10   10   10   10   10   10   10   10

   0   0   0   0   0   0   0   0   0   0   0   0   0   0   0   0   0   0   0   0   0   0   0   0   0   0   0   0   0   0   0  28 2 3 4 5 6 7 8 9 11 12 13 14 15 16 17 19 20 22 23 24 25 26 27 28 32 38 41 42 
   8   0   2   0   0   0   0   1   0   0   0   0   0   0   1   0   0   0   0   0   0   0   0   0   0   1   0   0   0   0   0  14 101 99 95 72 65 60 57 52 47 46 40 33 30 21 
   4   0   0   1   0   3   0   0   0   0   5   1   0   1   0   0   0   0   0   1   0   0   0   0   1   6   1   1   0   0   0   9 101 99 97 71 59 55 53 35 10 
   7   0   5   8   0   0   0   0   0   1   3   0   0   0   4   0   0   0   0   0   0   0   0   1  10   3   0   0   0   0   0  15 101 100 72 63 61 60 59 54 52 48 45 44 37 35 21 
   6   0   0   0   0   0   0   0   0   0   0   0   0   0   9   0   0   0   0   0   0   0   0   6   0   9   0   0   0   0   0  14 98 95 72 71 70 65 64 62 56 54 48 45 36 18 
   6   0   0   0   0   0   0   0   0   5   0   0   0   0   0   2   0   0   0   0   0   0   1   0   0   0   0   0   0   0   0  18 99 97 94 92 71 70 65 64 59 58 57 54 50 48 44 40 37 31 
   2   0   0   6   0   0   0   0   0   0   0   0   0   0   6   0   0   0   0   0   1   0   0   0   0   0   0   0   0   1   0  18 101 98 97 96 91 70 65 63 62 61 59 56 54 51 48 46 45 29 
   2   0   0   5   0   0   0   0   0   0   0   0   0   0   0   0   0   0   0   0   0   0   0   0   0   3   0   0   0   0   2  14 98 97 90 87 71 65 59 58 55 50 48 43 34 31 
   5   0   0   5   0   0   0   0   0   0   0   4   0   0   0   4   1   0   0   0   0   0   0   8   4   0   0   0   2   0   0  15 101 99 97 88 72 65 62 61 59 57 56 54 48 39 29 
   8   0   0   0   0   0   0   0   0   0   0   0   0   0   9   0   6   0   0   0   0   0   0   0   0   4   0   0   0   0   0  11 100 98 72 70 61 60 54 48 44 34 29 
   8   0   6   0   0   4   0   0   0   0   0   0   0   0   0   6   0   0   0   0   0   0   0   0   0   0   0   0   0   0   0  14 97 94 92 71 70 65 64 59 58 57 50 44 40 31 
   1   0   6   0   0   0   0   3   0   0   0   0   0   0   0   0   2   0   0   0   0   0   0   0   0   0   0   4   0   0   0  20 99 98 96 94 93 92 89 88 72 71 69 65 64 62 59 58 52 48 43 37 
   7   0   0   0   0  10   0   2   0   0   0   0   0   0   0   0   0   1   0   9   0   0   0   0   0   0   0   0   0   0   0  15 101 99 98 96 91 89 88 71 63 62 59 57 54 53 29 
   6   0  10   0   0   0   0   0   0   0   0   7   0   0   0   4   8   9   0   0   0   3   0   0   0   0   0   0   0   0   0  20 99 97 95 94 93 91 90 89 85 72 69 62 59 58 55 49 48 44 43 40 
   5   0   0   0   0   0   0   0   5   0   0   0   2   0   0   0   8   0   0   0   6   0   0   0   0   0   0   0   0   0   0  16 101 98 95 92 90 87 72 71 69 68 58 55 52 50 48 34 
   3   2   0   0   0   0   0   0   0   0   0   6   0   0   0   0   0   5   1   0   0   0   0   0   0   0   0   0   0   0   4  18 101 96 95 94 89 88 84 82 71 69 64 63 60 55 52 51 47 43 
   4   0   0   0   1   0   0   9   0   0   0   0   0   0   0   0   9   7   0   0   0   0   5   0   0   0   0   0   0   0   0  12 100 97 95 88 71 64 60 58 55 54 53 35 
   1   0   0   6   0   5   1   0   0   6   0   0   0   7   0  10   0   0   0   0   0   0   0   0   0   0   0   0   0   0   0  16 99 97 96 94 93 90 89 88 87 68 63 60 58 57 49 37 
   1   0   0   0   0   0   0   0   0   0   0   6   5   0   0   0   0   0   0   0   0   0   0   0   0   0   0   0   0   0   2  21 101 99 98 94 93 91 89 88 86 85 81 80 77 68 65 64 62 61 59 53 50 
   5   0   0   0   0   0   0   0   0   0   0   0   0   0   6   0   8   0   0   5   0   0   0   0   0   0   0   0   0   0   0  17 101 95 93 92 91 88 87 86 81 63 62 61 59 58 57 46 43 
   6   0   0   0   0   0   0   0   0   0   0   0   0   0   0   0   0   0   0   0   0   0   0   7   8   0   0   0   0   8   0  22 98 97 96 93 92 91 89 88 86 85 84 82 81 80 77 71 70 68 64 62 58 50 
   3   0   0   0   0   0   0   0   0   0   0   0   0   0   0   0   0   0   0   0   0   0   7   0   0   0   0   0   0   0   4  21 99 98 97 96 92 86 85 84 82 81 80 70 69 67 66 65 64 62 58 57 56 
   2   0   5   0   0   0   0   4   0   0   0   0   0   0   0   0   0   0   0   0   0   0   0   0   0   0   4   0   0   0   0  16 99 98 95 91 90 88 85 76 72 63 62 58 56 54 48 43 
   4   0   0   0   0   0   0  10   0   0   0   0   0   0   0   0   0   0   0   0   0   0   0   0   0  10   0   0   0   0   0  17 96 93 91 89 88 87 86 85 83 69 67 66 62 59 51 49 48 
   4   3   0   0   0   0   0   9   0   6   0   0   0   0   0   0   0   0   0   0   0   0   0   0   0   0   0   0   7   0   0  15 97 96 93 91 90 89 85 82 67 63 62 61 54 53 49 
   3   0   0   0   4   0   0   0   3   0   8   0   0   0   4   0   0   0   0   0   0   0   0   8   6   0   0   6   0   7   0  11 98 91 89 83 64 63 62 58 54 48 45 
   7   0  10   0   0   0   0   0   0   0   0   0   0   0   0   0   0   0   0   4   5   6   7   0   0   6   6   0   0   0   0  16 93 90 89 86 85 82 80 77 71 70 69 62 58 57 54 50 
  10   0   0   0   7   0   7   0   0   0   0   0   0   0   0   0   0   0   0   0   0   0   0   0   0   0   0   0   0   0   0  13 95 92 90 88 85 84 78 63 61 59 57 54 51 
   4   0   0   0   0   5   0   1  10   0   0   0   0   0   0   3   0   0   0   0   0   0   0   0   0   0   6   4   0   0   4  14 95 94 93 86 85 83 82 69 68 67 66 64 58 49 
   2   0   0   0   0   0   0   0   0   0   0   0   0   5   0   0   0   0   0   9   0   0   0   0   5   0   0   4   0   0   0  13 100 96 94 89 85 78 71 69 67 59 58 55 44 
  10   0   0   0   8   0   0   0   0   0   0   0   7   0   4   0   0   0   0   0   0   7   0   0   0   0   8   7   7   0   4  15 100 95 93 89 86 85 83 82 80 72 67 66 62 61 60 
   9   9   0   0   0  10   0   0   0   0   0   0   0   0   5   0   0   0   0   0   0  10   0   0   0   0   0   0   0   0   0  14 101 95 91 88 84 82 81 79 72 69 67 66 57 56 
   3   0   0   0   0   0   0   0   0   0   6   9   0   0   0   0   0   0   0   5   0   4   0   0   0   0   0   7   0   0   0  10 94 90 89 87 66 63 62 61 58 48 
   4   0   0   7   0   9   0   0   0   0   0   0   0   0   8   0   0   0   0   0   0   0   0   0   0   5   0   0   0   0   0   9 96 89 84 81 67 66 63 62 45 
  10   0   0   6   0   0   0   0   0   0   7   0   0   0   0   0   0   0   0   0   0   0   0   5   0   0   0   0   0   0   0  15 92 90 85 84 83 82 81 80 79 78 77 67 66 65 57 
   6   0   0  10   0   0   6   0   0   0   0   0   0   0   0   0   0   0   0   0   0   0   0   0   0   0   0   0   0   0   5  11 96 92 85 80 79 78 77 69 67 66 59 
   2   0   0   0   0   0   0   0   0   0   0   0   6   7   0   0   5   0   0   0   0   4   0   0   0   0   0   0   0   0   0  10 91 85 83 82 81 78 76 67 66 55 
   9   0   0   0   0   0   0   0   7   0   0   0   0   0   0   0   0   0   0   0   0   0   0   0   0   0   0   0   0   0   0  10 99 88 86 84 81 77 69 66 62 59 
   5   0   0   0   0   0   0   0   0   0   7   0   0   0   0   0   0   0   0   7   0   0   0   0   0   3   0   0   0   0   0  14 100 96 92 91 90 85 84 83 82 78 77 76 74 68 
   1   0   0   0   0   0   0   8   0   0   0   0  10   0   0   0   0   0   0   0   0   0   0   0   0   0   0   0   0   0   0  12 88 86 84 83 82 81 79 78 76 74 73 63 
  10   0   0   0   0   0   0   0   0   0   0   0   0   0   0   0   0   0   6   0   8   8   0   0   0   0   0   7   0   0   0   9 98 95 85 83 79 76 67 66 63 
   8   0   0   0   0   4   0   0   2   0   0   0   0   0   0   0   0   0   0   4   0   0   0   0   0   7   0   0   0   0   0   8 93 90 88 79 78 77 66 57 
   3   0   0   0   6   0   0   0   0   0   0   0   4   0   0   0   0   0   0   0   0   0   0   0   0   0   0   0   0   0   0   8 83 80 77 75 70 68 67 66 
   9   0   0   0   0   0   5   0   0   0   0   0   0   0   8   0   0   0   7   0   0   0   0   0   0   0   5   0   0   0   0   9 88 87 86 81 80 79 75 73 66 
   9   0   0   0   0   0   0   0   0   0   0   0   6   8   5   0   0   0   0   0   0   0   0   0   0   0   0   0   0   0   0   6 94 88 86 78 77 57 
   4   7   0   0   0   0   0   0   0   0   0   0   0   0   0   0   0   0   0   6   0   0   0   0   6   0   0   0   8   6   0   9 89 84 83 79 78 77 76 75 74 
   3   0   0   0   0   0   0   0   0   0   0   0   0   0   0   0   6   0   6   0   0   0   0   0   0   0   0   0   0   0   4   7 87 81 79 76 75 67 66 
   9   0   0   0   0   4   0   0   0   0   0   0   0   0  10   0   0   0   0   0   0   0   0   0   0   0   0   0   0   0   7   7 84 82 78 77 75 74 73 
   9   0   0   0   0   0   0   0   0   0   0   0   0   0   0   0   0   0   0   0   0   0   0   0   0   0   0   0   0   8   0   7 92 84 81 80 78 75 73 
   5   8   0   0   0   0   0   0   0   0   0   0   0   0   0   7   0   0   0   0   0   0   0   4   0   0   0   0   0   0   0   5 83 78 76 67 66 
   9   0   0   0   0   0   0   0   0   0   0   0   0   0   0   0   7   0   0   0   0   0   0   0   0   0   0   5   0   0   0   3 76 68 58 
   6   0   0   0   0   0   0   0   0   0   0   4   0   0   0   0   0   0   0   7   0   0   0   0   0   0   5   0   0   7   0   6 97 85 81 80 77 73 
   4   0   0   8   0   0   0   6   5  10   0   0   0   0   0   5   0   3   0   0   0   0   0   0   0   0   9   0   0   0   0   5 83 79 75 74 69 
   8   3   0   0   0   0   0   0   0   0  10   0   0   7   0   0   5   0   9   0   0   0   0   0   0   9   0   0   0   0   0   4 87 81 68 66 
   7   0   0   0   9   6   0   0   0   5   4   0   0   0   0   0   0   0   0   0   0   0   0   0   0   0   0   0   0   0   8   5 86 80 77 75 73 
   5   6   0   0   0   0   0   0   0   0   0   0   0   0   0   0   0   0   0   5   0   0   0   0   0   5   0   0   0   0   0   4 89 83 77 68 
   8   0   9   0   0   0   4   0   0   0   0   0   0   0   0   7   0   0   0   0   0   0   0   0   0   0   9  10   0   0   0   4 76 75 74 73 
   6   0   0   0   0   7   0   0   0   0   0   0   0   0   0   0   0   0   0   0   0   0   0   0   0   0   0   0   0   0   0   3 79 75 74 
   9   6   0   0   0   0   0   0   0   0   0   0   0   0   0   0   5   0   0   3   0   7   0   0   0   0   0   0   0   0   0   3 82 76 75 
   7   0   0   0   0   0   0   0   0   0   8   0   0   0   0   0   0   8   0   0   0   4   0   0   0   0   0   0   0   8   0   3 91 75 74 
  10   0   0   0   0   0   0   0   0   5   0   0   0   0   0   0   0   0   4   0   0   0   0   0   0   0   0   0   0   0   0   2 79 69 
   7   0   0   0   0   0   0   9   0   0   0   0   0   0   0   0   0   9   0   0   0   0   6   4   0   0   0   0   0   0   0   2 78 73 
   1   0   0   0   0   0   0   0   0   0   0   0   0   0   0   0   0   0   4   0   7   0   0   0   0   0   7   0   9   0   0   2 80 77 
   5   0   0   0   0   0   0   0   0   0   3   0   0   0   0   0   0   0   0   0   0   0   0   0   0   0   0   0   0   9   0   2 90 87 
   7   0   0   0   0   0   0   0   0   0   0   0   0   0   0   0   0   0   8   0   0   0   0   0   0   0   0   0   0   0   0   2 75 73 
   1   0   0   0   0   0   0   0   6   0   0   0   0   0   0   0   6   0   4   0   0   0   0   0   0   0   0   0   0   0   8   1 74 
   8   0   0   0   0   0   0   0   0   0   0   0   0   0   8   0   0   0   6   0   0   0   0   0   0   0   0   0   8   0  10   1 73 
   6   0   0   0   7   0   0   0   0   0   0   7   0   0   0   0   0   0   0   0   0   0   0   0   0   0   0   0   0   0   0   1 73 
   7  10   0   0   0   0   0   0   0   0   0   0   0   0   0   7   5   0   0   8   0   0   0   0   0   0   0   0   0   0   0   1 76 
   8   0   0   0   0   0   0   0   6   0   0   0   0   0   7   0   0   0   0   0   0   0   7   0   0   0   0   7   0   0   0   1 78 
   4   0   0   0   5   0   0  10   0   0   0   0   6   0   0   0   0   0   0   0   0   0   0   0   0   0   0   0   3   0   0   1 79 
  10   0   0   0   0   0   0   0   0   0   0   0   0   0   2   0   0   0   0   0   0   0   0   0   0   0   0   0   0   4   0   1 77 
   7   0   0   0   0   0   0   0   0   0   0   0   0   0   0   0   0   0   0   0   0   0   0   0   0   0   0   0   0   0   0   1 102
   4   0   0   0   0   0   0   0   0   0   0   0   0   0   0   4   0   0   0   5   0   0   0  10   8   2   6   0   0   0   0   1 102
   5   0   0   0   0   0   0   0   0   0   0   7   0   0   0   0   0   0   0   0   0   7   8   0   0   6   0   0   0   0   0   1 102
   7   0   0   0   0   0   4   0   0   0   0   0   0   0   0   0   0   0   0   8   0   0   0   0   0   0   0   0   0   0   4   1 102
   9   0   5   0   0   0   0   0   0   0   0   0   0   0   0   0   8   0   0   7   0   5   0   0   0   0   0   0   0   0   6   1 102
   3   0   0   0   0   0   0   0   0   0   0   0   4   0   0   0   0   0   5   0   0   0   0   0   0   0   0  10   0   0   0   1 102
   1   0   0   0   0   0   0   0   0   0   4   0   0   0   0   0   0   0   7   0   0   0   0   0   6   0   0   0   0   0   0   1 102
   3   0   0   0   7   0   0   0   0   0   0   0   0   0   0   0   0   0   6   0   0   0   0   0   0  10   0   0   0   0   0   1 102
   5   0   0   4   0   0   0   0   0   8   0   0   0   5   0   0   0   0   0   0   8   0   0   0   0   8   0   0   0   0   0   1 102
   2   0   0   0   0   0   0   0   0   0   0   0  10   0   0   8   8   0   0   0   0   0   4   0   0   4   0   0   0   0   0   1 102
   8   0   0   6   0   0   0   0   3   0   0   0   0   0   0   0   0   0   0   0   0   0   0   0   0   0   0   0   0   0   9   1 102
   4   0   0   0   0   0   8   0   0   0   0   0   0   0   0   0   0   0   0   0   0   0   0   9   0  10   0   0   0   5   9   1 102
   3   0   0   0   0   0  10   0   0   0   0  10   0   0   0   0   4   0   0   5   0   0   0   3   0   0   0   0   0   0   0   1 102
   7   0   0   0   0   0   0   0   0   8   0   0   0   0   0   0   0   0   0  10   3   0   0   0   0   0   0   0   2   0   0   1 102
   8   0   0   4   0   0   0   0   0   0   0   0   0   0   0   0   9   0   0   0   0   0   0   0   0   9   0   0   5   0   6   1 102
   3   0   7   9   0   0   0   0   0   0   0   0   6   0   0   0   0   0   0   0   0   0   0   0   0   0   0   0   0   0   0   1 102
   5   0   0   0   0   0   7   0   0   0   0   0   0   0   0   9   0   0   0   0   0   0   0   7   0   0   6   0   0   0   0   1 102
   3   0   2   0   0   0   0   0   0   0   7   5   0   0   0   0   0   0   0   0   0   0   0   0   0   0   0   0   8   0  10   1 102
   7   0   0   3   0   5   0   0   9   0   0   0   0   5   0   0   0   0   0   0   0   0   0   0   0   0   0   9   0   0   7   1 102
  10   0   0   6   6   4   0   0   0   0   0   8   7   0   0   0   0   0   0   0   0   0   7   0   6   0   0   0   0   3   7   1 102
   9   0   0   8   0   0   0   6   0   0   0   0   0   0   0   0   0   0   0   6   8   0   0   0   0   0   0   0   0   0   0   1 102
   1   0   0   0   0   0   0   0   0   0   0   0   5   0   0   0   0   0   0   0   8   0   0   0   0   0   0   0   0   0   0   1 102
   8   0   0   0   0   0   9   0   0   0   0   0   0   0   0   0   0   0   9   0   0   0   0   0   0   0   0   0  10   7   0   1 102
   6   0   0   0   0   0   0   0   0   0   0   0   0   0   0   8   4   0   0   0   0   0   0   0   0   0   0   5   0   5   0   1 102
   1   0   0   0   0   0   0   0   0   0   0   7   0   0   0   0   0   0   0   0   0   0   0   0   0   0   0   0   0   0   0   1 102
   2   0   0   0   0   8   5   0   0   0   0   0   0   9   0   0   0   0   0   0   0   0   0   0   0   0   0   0   3   0   0   1 102
   7   0   5   0   0   0   0   0   0   0   0   3   0   0   0   0   0   0   0   0   0   0   0   6   0   0   0   4   0   0   0   1 102
   7   0   0   0   0   0   0   0   0   0   0   0   0   0   0   0   0   0   0   0   0   0   0   0   0   0   0   0   0   0   0   1 102
   9   0   0   0   0   0   0   0  10   0   0   0   0   0   0   0   0   0   8   0   0   7   8   0   0   0   0   0   0   0   0   1 102
   0   0   0   0   0   0   0   0   0   0   0   0   0   0   0   0   0   0   0   0   0   0   0   0   0   0   0   0   0   0   0   0 
